c A SAT instance generated from a 3-CNF formula that had 40 clauses and 7 variables
p cnf 7 43
6 2 -3 0
-3 4 -5 0
-6 1 5 0
-7 -3 -6 0
-3 2 -5 0
-1 2 7 0
-6 -1 -4 0
2 -5 -3 0
7 -4 2 0
-5 -4 6 0
-1 2 -6 0
-6 7 3 0
-6 1 3 0
2 -4 7 0
-7 4 6 0
-4 -2 -1 0
4 2 5 0
-4 3 -1 0
7 4 1 0
5 -1 -6 0
-3 1 7 0
-3 -6 1 0
-7 -3 -1 0
7 -1 5 0
-6 4 1 0
6 7 4 0
-5 7 -2 0
-4 2 6 0
-4 1 2 0
5 6 2 0
-6 -1 2 0
-6 -3 2 0
-7 -3 -6 0
-4 6 -1 0
4 5 -7 0
7 -6 3 0
6 -4 -5 0
-7 6 5 0
-7 1 -3 0
-6 2 1 0
1 3 5 6 0
-6 -7 1 0
-1 -2 3 0
